p edge 44 87
e 6 2
e 8 4
e 8 7
e 9 8
e 11 9
e 12 3
e 12 5
e 12 7
e 12 8
e 13 3
e 14 12
e 15 14
e 16 3
e 16 15
e 17 11
e 18 7
e 18 10
e 18 11
e 18 16
e 18 17
e 19 16
e 20 17
e 21 9
e 21 11
e 22 12
e 23 2
e 23 16
e 24 1
e 24 21
e 25 5
e 25 14
e 25 23
e 26 11
e 26 21
e 27 5
e 27 26
e 28 1
e 28 2
e 29 7
e 29 11
e 29 26
e 30 29
e 31 9
e 31 19
e 31 22
e 32 5
e 32 31
e 33 4
e 33 16
e 34 4
e 34 23
e 36 10
e 36 16
e 36 18
e 36 19
e 36 24
e 36 27
e 37 2
e 37 20
e 37 30
e 38 6
e 38 12
e 38 23
e 38 37
e 39 7
e 39 11
e 39 16
e 40 11
e 40 17
e 40 21
e 40 34
e 41 7
e 41 24
e 41 40
e 42 2
e 42 20
e 42 23
e 42 24
e 43 20
e 43 21
e 43 30
e 43 35
e 44 1
e 44 4
e 44 7
e 44 16
e 44 27
